p tdp 52 51
14 49
9 46
3 25
26 47
30 52
30 34
32 27
28 19
48 51
12 33
12 32
8 31
10 1
35 5
27 25
22 13
2 39
2 29
11 30
42 47
43 28
41 17
39 21
18 10
6 49
8 15
37 10
34 49
9 24
51 40
20 7
19 31
41 11
3 9
36 49
42 10
4 39
5 29
20 25
5 47
23 49
2 44
45 50
38 40
43 18
49 43
45 43
13 34
3 40
16 48
9 36
